WARNING: for repeatability, setting FPU to use double precision
============================[ Problem Statistics ]=============================
|                                                                             |
|  Number of variables:        249943                                         |
|  Number of clauses:          804114                                         |
|  Parse time:                   0.20 s                                       |
|                                                                             |
c ============================[ Search Statistics ]==============================
c | Conflicts |          ORIGINAL         |          LEARNT          | Progress |
c |           |    Vars  Clauses Literals |    Limit  Clauses Lit/Cl |          |
c ===============================================================================
c Switched to VSIDS.
c Switched to LRB.
c Switched to VSIDS.
c Switched to LRB.
c Switched to VSIDS.
c Switched to LRB.
c Switched to VSIDS.
c Switched to LRB.
c Switched to VSIDS.
c Switched to LRB.
c Switched to VSIDS.
c Switched to LRB.
c Switched to VSIDS.
c Switched to LRB.
c Switched to VSIDS.
c Switched to LRB.
c ===============================================================================
restarts                  : 4870
conflicts                 : 555878         (1719 /sec)
decisions                 : 383193860      (0.00 % random) (1184855 /sec)
propagations              : 1396363851     (4317630 /sec)
conflict literals         : 49972494       (8.04 % deleted)

conflicts w/ DIP found    : 453597         (81.60 % of conflicts)
conflicts w/ dangerous DIP: 0              (0.00 % of conflicts)
conflicts w/ DIP-learning : 84             (0.02 % of conflicts)
decisions on ext vars     : 197            (0.00 % of decisions)
total ext vars            : 24          
tried delete ext vars     : 0           
deleted ext vars          : 0           
max ext vars              : 24          

Memory used               : 263.00 MB
CPU time                  : 323.41 s
DIP computation time      : 5.10299 s (1.58 % of total time)
ER_sel time               : 0.858547 s
ER_add time               : 0.000216 s
ER_delC time              : 0 s
ER_delV time              : 0 s
ER_sub time               : 0.978082 s
ER_stat time              : 0 s

SATISFIABLE
